p edge 80 79 36
e 1 26
e 2 32
e 3 21
e 3 28
e 3 64
e 4 19
e 4 46
e 5 56
e 5 58
e 5 25
e 5 55
e 5 47
e 6 38
e 7 54
e 7 41
e 8 72
e 8 42
e 9 46
e 9 18
e 10 49
e 10 62
e 11 32
e 11 43
e 11 25
e 12 21
e 13 58
e 14 68
e 14 77
e 14 48
e 14 72
e 15 67
e 15 48
e 16 39
e 16 24
e 17 31
e 17 75
e 18 67
e 19 70
e 20 43
e 22 49
e 23 47
e 24 27
e 24 37
e 24 75
e 24 43
e 25 40
e 26 58
e 27 34
e 29 64
e 29 67
e 30 79
e 30 38
e 33 51
e 35 42
e 35 80
e 36 38
e 37 61
e 38 57
e 38 63
e 38 71
e 41 71
e 44 70
e 45 76
e 45 55
e 46 69
e 47 79
e 50 72
e 51 79
e 52 60
e 53 74
e 53 65
e 58 60
e 59 68
e 62 69
e 65 76
e 66 76
e 67 71
e 72 78
e 73 76
